p cnf 31 80
a 19 22 0
e 1 2 3 4 5 6 7 8 9 10 11 12 13 14 15 16 17 18 20 21 23 24 25 26 27 28 29 30 31 0
3 -1 0
3 -2 0
1 2 -3 0
-6 -4 0
-6 5 0
4 -5 6 0
-7 3 0
-7 -6 0
-3 6 7 0
8 7 0
8 3 0
-7 -3 -8 0
10 -1 0
10 -9 0
1 9 -10 0
11 -8 0
11 10 0
8 -10 -11 0
12 -1 -13 0
-12 1 -13 0
12 1 13 0
-12 -1 13 0
11 -13 -14 0
-11 13 -14 0
11 13 14 0
-11 -13 14 0
9 16 -17 0
-9 -16 -17 0
9 -16 17 0
-9 16 17 0
15 17 -18 0
-15 -17 -18 0
15 -17 18 0
-15 17 18 0
-19 6 0
-19 8 0
-6 -8 19 0
-19 20 -21 0
19 -20 -21 0
-19 -20 21 0
19 20 21 0
9 -2 -22 0
-9 2 -22 0
9 2 22 0
-9 -2 22 0
23 -19 0
23 10 0
19 -10 -23 0
24 22 0
24 -23 0
-22 23 -24 0
-21 -24 -25 0
21 24 -25 0
-21 24 25 0
21 -24 25 0
-26 18 0
-26 -25 0
-18 25 26 0
27 -14 0
27 26 0
14 -26 -27 0
4 28 -29 0
-4 -28 -29 0
4 -28 29 0
-4 28 29 0
-30 2 0
-30 29 0
-2 -29 30 0
-27 30 -31 0
27 -30 -31 0
-27 -30 31 0
27 30 31 0
-13 -24 -5 0
-13 -7 2 -3 21 0
9 17 13 0
-29 -2 15 -4 -23 0
6 22 -19 24 -27 1 -8 -28 0
-25 -14 7 -12 0
15 27 -17 -21 25 0
31 0
